p ds 20 5
1 7
1 14
1 15
1 17
1 20
2 3
2 7
2 8
2 9
2 12
2 20
3 5
3 8
3 12
3 13
3 14
3 16
3 20
4 8
4 9
4 12
4 13
4 14
4 16
4 18
5 14
5 16
5 19
5 20
6 7
6 8
6 14
6 17
6 19
7 8
7 10
7 11
7 14
7 16
7 18
7 19
8 10
8 14
8 15
8 17
8 20
9 11
9 12
9 14
9 16
9 18
9 20
10 11
10 12
10 15
10 17
10 20
11 15
11 17
11 18
12 15
12 16
13 19
14 19
15 16
15 17
15 19
16 19
16 20
17 18
17 20
18 20
19 20
